NAME : X_26_seed_123_id_3
TYPE : CVRP
DIMENSION : 219
EDGE_WEIGHT_TYPE : EUC_2D
CAPACITY : 3
NODE_COORD_SECTION
1	0	0
2	534	112
3	243	838
4	372	190
5	577	293
6	659	926
7	669	175
8	728	9
9	699	80
10	904	874
11	825	927
12	87	399
13	109	267
14	418	244
15	362	942
16	493	656
17	796	568
18	291	482
19	195	6
20	658	494
21	539	616
22	213	916
23	516	108
24	176	510
25	479	763
26	896	959
27	467	411
28	888	299
29	373	943
30	484	507
31	139	17
32	628	300
33	562	497
34	4	414
35	705	812
36	570	712
37	897	337
38	695	802
39	939	664
40	783	313
41	296	299
42	621	659
43	570	707
44	884	287
45	243	339
46	959	294
47	398	401
48	710	962
49	199	796
50	455	128
51	362	117
52	212	230
53	44	577
54	289	404
55	175	160
56	887	102
57	952	551
58	198	526
59	456	669
60	811	626
61	694	251
62	500	16
63	997	360
64	934	815
65	852	898
66	420	272
67	592	501
68	714	201
69	704	201
70	536	527
71	694	570
72	101	245
73	799	190
74	51	280
75	396	362
76	591	369
77	872	339
78	539	187
79	7	504
80	414	219
81	476	617
82	317	929
83	612	937
84	763	979
85	964	90
86	612	292
87	30	160
88	751	607
89	848	938
90	790	940
91	40	228
92	762	888
93	592	623
94	529	909
95	911	124
96	279	486
97	706	908
98	806	20
99	572	914
100	719	283
101	68	391
102	398	501
103	200	913
104	531	227
105	684	58
106	747	665
107	961	933
108	901	2
109	916	470
110	601	816
111	505	789
112	83	428
113	285	415
114	367	769
115	943	359
116	806	869
117	285	671
118	794	523
119	941	470
120	846	187
121	610	488
122	305	234
123	962	846
124	580	603
125	423	649
126	685	981
127	386	177
128	806	741
129	99	939
130	833	181
131	952	728
132	165	669
133	325	718
134	660	57
135	83	396
136	586	67
137	692	417
138	461	186
139	825	165
140	121	907
141	205	55
142	767	397
143	344	274
144	123	632
145	81	758
146	506	240
147	331	895
148	578	740
149	949	840
150	604	27
151	244	725
152	896	907
153	67	471
154	446	444
155	386	901
156	640	720
157	642	178
158	2	887
159	648	145
160	608	281
161	503	661
162	507	760
163	448	850
164	325	409
165	980	829
166	836	721
167	127	526
168	915	303
169	510	411
170	696	676
171	818	584
172	729	19
173	234	646
174	178	57
175	8	32
176	725	448
177	135	49
178	886	737
179	815	62
180	998	636
181	88	352
182	456	887
183	491	491
184	240	208
185	376	842
186	82	597
187	264	393
188	216	660
189	714	531
190	907	230
191	945	462
192	517	400
193	824	324
194	78	223
195	763	879
196	690	578
197	642	718
198	175	95
199	839	645
200	4	878
201	527	237
202	52	784
203	806	900
204	599	858
205	280	532
206	621	135
207	685	33
208	974	290
209	281	867
210	481	802
211	502	436
212	782	834
213	424	392
214	163	435
215	106	887
216	441	985
217	521	157
218	636	227
219	953	976
DEMAND_SECTION
1	0
2	1
3	1
4	1
5	1
6	1
7	1
8	1
9	1
10	1
11	1
12	1
13	1
14	1
15	1
16	1
17	1
18	1
19	1
20	1
21	1
22	1
23	1
24	1
25	1
26	1
27	1
28	1
29	1
30	1
31	1
32	1
33	1
34	1
35	1
36	1
37	1
38	1
39	1
40	1
41	1
42	1
43	1
44	1
45	1
46	1
47	1
48	1
49	1
50	1
51	1
52	1
53	1
54	1
55	1
56	1
57	1
58	1
59	1
60	1
61	1
62	1
63	1
64	1
65	1
66	1
67	1
68	1
69	1
70	1
71	1
72	1
73	1
74	1
75	1
76	1
77	1
78	1
79	1
80	1
81	1
82	1
83	1
84	1
85	1
86	1
87	1
88	1
89	1
90	1
91	1
92	1
93	1
94	1
95	1
96	1
97	1
98	1
99	1
100	1
101	1
102	1
103	1
104	1
105	1
106	1
107	1
108	1
109	1
110	1
111	1
112	1
113	1
114	1
115	1
116	1
117	1
118	1
119	1
120	1
121	1
122	1
123	1
124	1
125	1
126	1
127	1
128	1
129	1
130	1
131	1
132	1
133	1
134	1
135	1
136	1
137	1
138	1
139	1
140	1
141	1
142	1
143	1
144	1
145	1
146	1
147	1
148	1
149	1
150	1
151	1
152	1
153	1
154	1
155	1
156	1
157	1
158	1
159	1
160	1
161	1
162	1
163	1
164	1
165	1
166	1
167	1
168	1
169	1
170	1
171	1
172	1
173	1
174	1
175	1
176	1
177	1
178	1
179	1
180	1
181	1
182	1
183	1
184	1
185	1
186	1
187	1
188	1
189	1
190	1
191	1
192	1
193	1
194	1
195	1
196	1
197	1
198	1
199	1
200	1
201	1
202	1
203	1
204	1
205	1
206	1
207	1
208	1
209	1
210	1
211	1
212	1
213	1
214	1
215	1
216	1
217	1
218	1
219	1
DEPOT_SECTION
1
-1
EOF
